c width = 2, time = 0.000081
s td 37 3 39
b 1 5 6 7
b 2 5 7 8
b 3 5 8 9
b 4 5 9 10
b 5 5 10 11
b 6 5 11 12
b 7 5 12 14
b 8 5 14 15
b 9 5 15 16
b 10 5 16 17
b 11 5 17 18
b 12 5 18 19
b 13 5 19 20
b 14 5 20 21
b 15 5 21 22
b 16 5 22 23
b 17 5 23 25
b 18 5 25 26
b 19 5 26 27
b 20 5 27 28
b 21 5 28 29
b 22 5 29 30
b 23 5 30 31
b 24 5 4
b 25 4 3
b 26 3 39
b 27 39 38
b 28 38 37
b 29 37 36
b 30 36 35
b 31 35 34
b 32 34 24
b 33 24 13
b 34 13 2
b 35 2 1
b 36 9 32
b 37 32 33
1 2
2 3
3 4
4 5
5 6
6 7
7 8
8 9
9 10
10 11
11 12
12 13
13 14
14 15
15 16
16 17
17 18
18 19
19 20
20 21
21 22
22 23
1 24
24 25
25 26
26 27
27 28
28 29
29 30
30 31
31 32
32 33
33 34
34 35
3 36
36 37
